51 6
17 16 17 18 17 16
1 0 0 0 0 0 0 3 2 3 4
3 5 9 2 3 2 6 1 8
10 4 8 8 5 7 4 3 5 6 7
1 2 3 4 10 4 10 2 7 8
3 4 1 2 1 2 6 2 11 12
5 8 2 7 9 7 7 2 9 11
9 7 3 1 10 1 7 1 10
1 8 10 9 6 2 5 1 9
1 8 10 8 1 7 3 2 14 15
6 2 6 10 6 10 10 4 13 14 15 16
1 4 1 8 6 2 6 2 14 15
4 8 7 7 1 2 5 3 13 14 16
1 3 3 1 3 10 8 2 19 20
2 3 3 5 2 5 3 1 18
1 1 3 8 6 5 1 1 20
7 10 5 2 7 7 10 4 17 18 19 20
10 4 5 6 1 7 6 4 21 22 23 24
5 5 7 3 2 2 1 1 21
1 10 9 8 5 2 7 3 21 22 24
2 8 1 3 5 1 8 3 21 23 24
1 7 5 7 1 3 2 2 25 26
10 6 5 1 9 8 7 1 25
2 4 3 3 10 10 9 2 26 27
1 10 10 9 6 1 10 3 25 26 28
5 9 2 5 1 3 1 2 29 31
1 7 6 7 1 2 9 2 29 31
2 10 4 2 10 5 5 3 30 31 32
1 6 10 1 10 1 7 4 29 30 31 32
6 6 7 7 6 10 2 2 35 36
1 10 4 2 4 10 6 1 35
2 7 7 3 8 10 9 3 33 34 35
1 8 4 9 10 5 6 1 35
4 4 5 5 9 6 1 4 37 38 39 40
9 2 3 1 10 1 2 3 37 39 40
1 4 4 8 7 10 2 2 37 39
3 3 3 4 6 6 8 2 38 39
8 7 10 8 7 1 8 3 41 42 44
7 1 1 10 6 9 8 2 41 42
5 3 6 4 10 8 9 2 42 43
1 5 8 4 5 4 2 2 42 43
1 8 9 6 2 1 3 1 48
8 5 6 6 4 5 3 2 45 47
5 4 8 10 7 10 1 2 45 48
1 2 7 8 8 8 4 3 45 46 47
2 6 1 6 5 10 3 1 49
1 2 1 6 7 9 2 1 49
6 9 10 3 4 7 5 1 49
1 1 4 9 3 10 2 2 49 50
6 8 5 6 10 6 7 1 51
1 1 6 8 7 7 3 1 51
0 0 0 0 0 0 0 0
